20
2  200 100 
2  400 300 
2  300 100 
3  300 100 400 
3  400 300 100 
2  100 400 
3  400 200 100 
2  100 300 
2  100 200 
2  200 400 
2  300 400 
3  100 200 400 
3  100 200 300 
2  300 200 
2  100 200 
3  100 400 300 
2  400 100 
3  400 200 100 
2  100 200 
2  300 100 
